20
1 0 20
2 0 95
2 1 83
3 0 11
3 1 86
3 2 22
4 0 16
4 1 88
4 2 40
4 3 76
5 0 92
5 1 63
5 2 28
5 3 19
5 4 2
6 0 67
6 1 55
6 2 7
6 3 22
6 4 9
6 5 73
7 0 63
7 1 95
7 2 65
7 3 38
7 4 76
7 5 75
7 6 56
8 0 68
8 1 58
8 2 24
8 3 53
8 4 31
8 5 59
8 6 67
8 7 15
9 0 42
9 1 100
9 2 26
9 3 67
9 4 55
9 5 98
9 6 98
9 7 40
9 8 70
10 0 76
10 1 54
10 2 59
10 3 95
10 4 85
10 5 57
10 6 41
10 7 39
10 8 94
10 9 47
11 0 36
11 1 13
11 2 4
11 3 20
11 4 23
11 5 72
11 6 5
11 7 13
11 8 52
11 9 36
11 10 84
12 0 79
12 1 87
12 2 47
12 3 45
12 4 81
12 5 88
12 6 75
12 7 6
12 8 77
12 9 54
12 10 70
12 11 73
13 0 59
13 1 85
13 2 16
13 3 22
13 4 62
13 5 66
13 6 53
13 7 32
13 8 66
13 9 65
13 10 45
13 11 34
13 12 50
14 0 99
14 1 41
14 2 100
14 3 75
14 4 9
14 5 39
14 6 69
14 7 11
14 8 53
14 9 43
14 10 73
14 11 17
14 12 15
14 13 96
15 0 34
15 1 55
15 2 60
15 3 10
15 4 28
15 5 1
15 6 18
15 7 32
15 8 53
15 9 56
15 10 60
15 11 21
15 12 22
15 13 4
15 14 95
16 0 15
16 1 87
16 2 58
16 3 7
16 4 20
16 5 72
16 6 70
16 7 17
16 8 62
16 9 44
16 10 32
16 11 31
16 12 51
16 13 74
16 14 71
16 15 2
17 0 79
17 1 56
17 2 14
17 3 37
17 4 47
17 5 95
17 6 90
17 7 9
17 8 68
17 9 63
17 10 83
17 11 63
17 12 25
17 13 8
17 14 61
17 15 28
17 16 60
18 0 53
18 1 34
18 2 64
18 3 25
18 4 7
18 5 31
18 6 17
18 7 30
18 8 11
18 9 86
18 10 62
18 11 58
18 12 52
18 13 79
18 14 37
18 15 40
18 16 33
18 17 77
19 0 25
19 1 4
19 2 99
19 3 54
19 4 25
19 5 50
19 6 31
19 7 6
19 8 8
19 9 7
19 10 67
19 11 77
19 12 72
19 13 69
19 14 18
19 15 60
19 16 20
19 17 31
19 18 84
